Log file: C:\Users\user\robust_bilevel_network_games\true_dro\S20_beta0p5_wmax\log_abilene_S20_20260418_050111713_wmax.txt
Started: 2026-04-18T05:01:11.713

======================================================================
============================================================
ABILENE Network Summary
============================================================
Number of nodes: 12
Number of arcs (incl. dummy): 31
Number of regular arcs: 30
Number of interdictable arcs: 22
Source node: s (STTLng)
Sink node: t (NYCMng)
Node-incidence matrix N dimensions: (11, 31)

Sparsity Information:
  Arc-arc adjacency: 268 / 900 pairs (70.2% sparse)
  Node-arc incidence: 56 / 330 pairs (83.0% sparse)

First 15 arcs:
  Arc 1: ("ATLAM5", "ATLAng") [Interdictable: ✓]
  Arc 2: ("ATLAng", "ATLAM5") [Interdictable: ✓]
  Arc 3: ("ATLAng", "HSTNng") [Interdictable: ✓]
  Arc 4: ("ATLAng", "IPLSng") [Interdictable: ✓]
  Arc 5: ("ATLAng", "WASHng") [Interdictable: ✓]
  Arc 6: ("CHINng", "IPLSng") [Interdictable: ✓]
  Arc 7: ("CHINng", "t") [Interdictable: ✗]
  Arc 8: ("DNVRng", "KSCYng") [Interdictable: ✓]
  Arc 9: ("DNVRng", "SNVAng") [Interdictable: ✓]
  Arc 10: ("DNVRng", "s") [Interdictable: ✗]
  Arc 11: ("HSTNng", "ATLAng") [Interdictable: ✓]
  Arc 12: ("HSTNng", "KSCYng") [Interdictable: ✓]
  Arc 13: ("HSTNng", "LOSAng") [Interdictable: ✓]
  Arc 14: ("IPLSng", "ATLAng") [Interdictable: ✓]
  Arc 15: ("IPLSng", "CHINng") [Interdictable: ✓]
============================================================
  |A|=30, S=20, γ=2, w=25.6333 (=max cap), λU=2.0
  ε̂=0.58, ε̃=0.58
INSTANCE: abilene (S=20, β=0.5, γ=2, w=25.6333, ε̂=0.58, ε̃=0.58)
  Settings: MW cuts, mincut VI, inexact=false, mini-benders, w=max(cap)
======================================================================

----------------------------------------
VI-only OMP diagnostic (no Benders cuts)
Set parameter Username
Set parameter LicenseID to value 2742039
Academic license - for non-commercial use only - expires 2026-11-20
Set parameter OutputFlag to value 1
Set parameter OutputFlag to value 1
Gurobi Optimizer version 13.0.0 build v13.0.0rc1 (win64 - Windows 10.0 (19045.2))

CPU model: AMD Ryzen 9 5900X 12-Core Processor, instruction set [SSE2|AVX|AVX2]
Thread count: 12 physical cores, 24 logical processors, using up to 24 threads

Optimize a model with 2430 rows, 1451 columns and 7019 nonzeros (Min)
Model fingerprint: 0x1eba5213
Model has 1 linear objective coefficients
Variable types: 1421 continuous, 30 integer (30 binary)
Coefficient statistics:
  Matrix range     [1e-02, 1e+00]
  Objective range  [1e+00, 1e+00]
  Bounds range     [1e+00, 1e+04]
  RHS range        [1e+00, 2e+00]
Found heuristic solution: objective 32.5372879
Presolve removed 1349 rows and 553 columns
Presolve time: 0.01s
Presolved: 1081 rows, 898 columns, 2518 nonzeros
Found heuristic solution: objective 32.5372880
Variable types: 880 continuous, 18 integer (18 binary)

Root relaxation: objective 3.552714e-15, 204 iterations, 0.00 seconds (0.00 work units)

    Nodes    |    Current Node    |     Objective Bounds      |     Work
 Expl Unexpl |  Obj  Depth IntInf | Incumbent    BestBd   Gap | It/Node Time

*    0     0               0      -0.0000000   -0.00000  0.00%     -    0s

Explored 1 nodes (204 simplex iterations) in 0.02 seconds (0.01 work units)
Thread count was 24 (of 24 available processors)

Solution count 2: -1.05471e-15 32.5373 

Optimal solution found (tolerance 1.00e-04)
Best objective -1.845745778439e-15, best bound -1.845745778439e-15, gap 0.0000%

User-callback calls 42, time in user-callback 0.00 sec
  VI-only LB = -0.000000, x = [0, 0, 0, 0, 1, 0, 0, 0, 0, 0, 0, 0, 0, 0, 1, 0, 0, 0, 0, 0, 0, 0, 0, 0, 0, 0, 0, 0, 0, 0]
----------------------------------------

======================================================================
True-DRO Benders
======================================================================
Set parameter Username
Set parameter LicenseID to value 2742039
Academic license - for non-commercial use only - expires 2026-11-20
Set parameter Username
Set parameter LicenseID to value 2742039
Academic license - for non-commercial use only - expires 2026-11-20
Set parameter Username
Set parameter LicenseID to value 2742039
Academic license - for non-commercial use only - expires 2026-11-20
Set parameter Username
Set parameter LicenseID to value 2742039
Academic license - for non-commercial use only - expires 2026-11-20
Set parameter Username
Set parameter LicenseID to value 2742039
Academic license - for non-commercial use only - expires 2026-11-20
Set parameter Username
Set parameter LicenseID to value 2742039
Academic license - for non-commercial use only - expires 2026-11-20

=== True-DRO Benders iter 1 ===
  OMP: t₀=-0.000000, UB=Inf, gap=NaN, x=[0, 0, 0, 0, 1, 0, 0, 0, 0, 0, 0, 0, 0, 0, 1, 0, 0, 0, 0, 0, 0, 0, 0, 0, 0, 0, 0, 0, 0, 0] (0.019s)
  Sub: Z₀=19.660373 [LOCAL], α=[0.000,0.000,0.000,0.000,9.241,0.000,0.000,2.759,0.000,0.000,0.000,0.000,0.000,0.000,12.082,0.000,0.000,0.000,0.000,1.551,0.000,0.000,0.000,0.000,0.000,0.000,0.000,0.000,0.000,0.000]
  Iter 1: LB=-0.000000  UB=Inf  gap=NaN
  Cut: intercept=-582.256104, π_x_range=[-419.9783, 304.5270]
  Mini-Benders[1] (mw): LB=0.000000, Z₀(α*)=-9.168068, intercept=9.910697
  Mini-Benders[2] (mw): LB=0.000000, Z₀(α*)=-9.168068, intercept=9.910697
  Mini-Benders[3]: LB stagnated, break
  α-step: Z₀=11.351224, α=[0.000,0.000,0.000,0.000,0.726,0.000,0.000,8.979,0.000,0.000,0.777,0.000,0.000,0.000,6.968,0.000,0.000,0.000,5.811,2.372,0.000,0.000,0.000,0.000,0.000,0.000,0.000,0.000,0.000,0.000]
  Alt-Benders[1] (mw): LB=0.000000, Z₀(α*)=1.278547, intercept=24.514351
  Alt-Benders[2] (mw): LB=1.278546, Z₀(α*)=1.278547, intercept=24.514351
  Alt-Benders[3] (mw): LB=1.278546, Z₀(α*)=1.278547, intercept=24.514351
  Alt-Benders[4] (mw): LB=1.278546, Z₀(α*)=1.278547, intercept=24.514351
  Alt-Benders[5]: LB stagnated, break
  OMP re-solve: 0.000s

=== True-DRO Benders iter 2 ===
  OMP: t₀=1.278546, UB=Inf, gap=NaN, x=[0, 0, 0, 0, 0, 0, 0, 0, 0, 0, 1, 0, 0, 0, 0, 0, 0, 0, 1, 0, 0, 0, 0, 0, 0, 0, 0, 0, 0, 0] (0.000s)
  Sub: Z₀=19.651952 [LOCAL], α=[0.000,0.000,0.000,0.000,0.017,0.000,0.000,2.069,0.000,0.000,10.910,0.000,0.000,0.000,0.895,0.000,0.000,0.000,11.743,0.000,0.000,0.000,0.000,0.000,0.000,0.000,0.000,0.000,0.000,0.000]
  Iter 2: LB=1.278546  UB=Inf  gap=NaN
  Cut: intercept=-571.988604, π_x_range=[-420.6314, 298.3086]
  Mini-Benders[1] (mw): LB=2.003208, Z₀(α*)=-9.458984, intercept=-11.043255
  Mini-Benders[2] (mw): LB=2.003208, Z₀(α*)=-9.458984, intercept=-11.043255
  Mini-Benders[3] (mw): LB=2.003208, Z₀(α*)=-9.458984, intercept=-11.043255
  Mini-Benders[4]: LB stagnated, break
  α-step: Z₀=14.347067, α=[0.000,0.000,0.000,0.000,2.668,0.000,0.000,9.363,0.000,0.000,0.000,0.000,0.000,0.000,7.231,0.000,0.000,0.000,6.371,0.000,0.000,0.000,0.000,0.000,0.000,0.000,0.000,0.000,0.000,0.000]
  Alt-Benders[1] (mw): LB=2.156246, Z₀(α*)=12.705226, intercept=11.905042
  Alt-Benders[2] (mw): LB=2.163630, Z₀(α*)=13.161631, intercept=20.422172
  Alt-Benders[3] (mw): LB=2.405326, Z₀(α*)=7.531707, intercept=22.711826
  Alt-Benders[4] (mw): LB=4.156850, Z₀(α*)=12.832650, intercept=20.704676
  Alt-Benders[5] (mw): LB=5.127705, Z₀(α*)=12.602966, intercept=14.624622
  OMP re-solve: 0.158s

=== True-DRO Benders iter 3 ===
  OMP: t₀=6.685827, UB=Inf, gap=NaN, x=[0, 0, 0, 0, 0, 0, 0, 1, 0, 0, 0, 0, 0, 0, 1, 0, 0, 0, 0, 0, 0, 0, 0, 0, 0, 0, 0, 0, 0, 0] (0.000s)
  Sub: Z₀=22.466786 [TIME_LIMIT], α=[0.000,0.000,0.000,0.000,0.597,0.000,0.000,11.164,0.000,0.000,0.000,0.000,0.000,0.000,6.312,0.000,0.000,0.000,0.000,7.561,0.000,0.000,0.000,0.000,0.000,0.000,0.000,0.000,0.000,0.000]
  Iter 3: LB=6.685827  UB=22.587064  gap=7.04e-01
  Cut: intercept=9.964653, π_x_range=[-47.4210, 10.7095]
  Mini-Benders[1] (mw): LB=7.154955, Z₀(α*)=-5.452823, intercept=6.216187
  Mini-Benders[2] (mw): LB=7.154955, Z₀(α*)=-5.452823, intercept=6.216187
  Mini-Benders[3] (mw): LB=7.154955, Z₀(α*)=-5.452823, intercept=6.216187
  Mini-Benders[4]: LB stagnated, break
  α-step: Z₀=21.171958, α=[0.000,0.000,0.000,0.000,0.494,0.000,0.000,7.863,0.000,0.000,0.000,0.000,0.000,0.000,7.544,0.000,0.000,0.000,9.731,0.000,0.000,0.000,0.000,0.000,0.000,0.000,0.000,0.000,0.000,0.000]
  Alt-Benders[1] (mw): LB=7.531706, Z₀(α*)=4.675819, intercept=23.022879
  Alt-Benders[2] (mw): LB=7.531706, Z₀(α*)=4.675819, intercept=23.022879
  Alt-Benders[3] (mw): LB=7.531706, Z₀(α*)=4.675819, intercept=23.022879
  Alt-Benders[4]: LB stagnated, break
  OMP re-solve: 0.000s

=== True-DRO Benders iter 4 ===
  OMP: t₀=7.531706, UB=22.587064, gap=6.67e-01, x=[0, 0, 0, 0, 0, 0, 0, 1, 0, 0, 0, 0, 0, 0, 0, 0, 0, 0, 0, 0, 0, 0, 1, 0, 0, 0, 0, 0, 0, 0] (0.000s)
  Sub: Z₀=20.278131 [LOCAL], α=[0.000,0.000,0.000,0.000,0.097,0.000,0.000,18.127,0.000,0.000,0.000,0.000,0.000,0.000,3.159,0.000,0.000,0.000,0.000,0.000,0.000,0.000,4.249,0.000,0.000,0.000,0.000,0.000,0.000,0.000]
  Iter 4: LB=7.531706  UB=22.587064  gap=6.67e-01
  Cut: intercept=-573.301962, π_x_range=[-419.8792, 297.5712]
  Mini-Benders[1] (mw): LB=7.593098, Z₀(α*)=-0.308251, intercept=6.539916
  Mini-Benders[2] (mw): LB=7.593098, Z₀(α*)=-0.308251, intercept=6.539916
  Mini-Benders[3] (mw): LB=7.593098, Z₀(α*)=-0.308251, intercept=6.539916
  Mini-Benders[4]: LB stagnated, break
  α-step: Z₀=18.433335, α=[0.000,0.000,0.000,0.000,0.494,0.000,0.000,14.424,0.000,0.000,0.000,0.000,0.000,0.000,3.860,0.000,0.000,0.000,6.855,0.000,0.000,0.000,0.000,0.000,0.000,0.000,0.000,0.000,0.000,0.000]
  Alt-Benders[1] (mw): LB=8.101843, Z₀(α*)=-2.003826, intercept=16.758613
  Alt-Benders[2] (mw): LB=8.101843, Z₀(α*)=-2.003826, intercept=16.758613
  Alt-Benders[3] (mw): LB=8.101843, Z₀(α*)=-2.003826, intercept=16.758613
  Alt-Benders[4]: LB stagnated, break
  OMP re-solve: 0.000s

=== True-DRO Benders iter 5 ===
  OMP: t₀=8.101843, UB=22.587064, gap=6.41e-01, x=[0, 0, 0, 0, 0, 0, 0, 0, 0, 0, 1, 0, 0, 1, 0, 0, 0, 0, 0, 0, 0, 0, 0, 0, 0, 0, 0, 0, 0, 0] (0.000s)
  Sub: Z₀=23.460787 [LOCAL], α=[0.000,0.000,0.000,0.000,0.000,0.000,0.000,2.709,0.000,0.000,11.080,0.000,0.000,1.740,7.643,0.000,0.000,0.000,0.000,2.461,0.000,0.000,0.000,0.000,0.000,0.000,0.000,0.000,0.000,0.000]
  Iter 5: LB=8.101843  UB=22.587064  gap=6.41e-01
  Cut: intercept=-575.894934, π_x_range=[-421.2688, 299.7954]
  Mini-Benders[1] (mw): LB=11.152190, Z₀(α*)=-7.730250, intercept=7.534898
  Mini-Benders[2] (mw): LB=11.152190, Z₀(α*)=-7.730250, intercept=7.534898
  Mini-Benders[3] (mw): LB=11.152190, Z₀(α*)=-7.730250, intercept=7.534898
  Mini-Benders[4]: LB stagnated, break
  α-step: Z₀=17.532408, α=[0.000,0.000,0.000,0.000,0.494,0.000,0.000,6.055,0.000,0.000,0.000,0.000,0.000,0.000,6.133,0.000,0.000,1.891,10.084,0.975,0.000,0.000,0.000,0.000,0.000,0.000,0.000,0.000,0.000,0.000]
  Alt-Benders[1] (mw): LB=11.227119, Z₀(α*)=6.647721, intercept=15.603206
  Alt-Benders[2] (mw): LB=11.227119, Z₀(α*)=6.647721, intercept=15.603206
  Alt-Benders[3] (mw): LB=11.227119, Z₀(α*)=6.647721, intercept=15.603206
  Alt-Benders[4]: LB stagnated, break
  OMP re-solve: 0.000s

=== True-DRO Benders iter 6 ===
  OMP: t₀=11.227119, UB=22.587064, gap=5.03e-01, x=[0, 0, 0, 0, 1, 0, 0, 0, 0, 0, 0, 0, 0, 0, 0, 0, 0, 0, 0, 1, 0, 0, 0, 0, 0, 0, 0, 0, 0, 0] (0.000s)
  Sub: Z₀=21.320414 [TIME_LIMIT], α=[0.000,0.000,0.000,0.000,12.988,0.000,0.000,2.140,0.000,0.000,0.000,0.000,0.000,0.000,4.808,0.000,0.000,0.000,0.000,5.696,0.000,0.000,0.000,0.000,0.000,0.000,0.000,0.000,0.000,0.000]
  Iter 6: LB=11.227119  UB=21.339914  gap=4.74e-01
  Cut: intercept=5.502471, π_x_range=[-47.0527, 12.3044]
  Mini-Benders[1] (mw): LB=11.227119, Z₀(α*)=8.016285, intercept=4.101226
  Mini-Benders[2] (mw): LB=11.227119, Z₀(α*)=8.016285, intercept=4.101226
  Mini-Benders[3]: LB stagnated, break
  α-step: Z₀=20.310814, α=[0.000,0.000,0.000,0.000,0.000,0.000,0.000,5.659,0.000,0.000,0.000,0.000,0.000,0.000,17.797,0.000,0.000,0.000,0.000,0.000,0.000,0.000,2.178,0.000,0.000,0.000,0.000,0.000,0.000,0.000]
  Alt-Benders[1] (mw): LB=11.351224, Z₀(α*)=-6.336367, intercept=13.707746
  Alt-Benders[2] (mw): LB=11.351224, Z₀(α*)=-6.336367, intercept=13.707746
  Alt-Benders[3] (mw): LB=11.351224, Z₀(α*)=-6.336367, intercept=13.707746
  Alt-Benders[4]: LB stagnated, break
  OMP re-solve: 0.000s

=== True-DRO Benders iter 7 ===
  OMP: t₀=11.351224, UB=21.339914, gap=4.68e-01, x=[0, 0, 0, 0, 0, 0, 0, 1, 0, 0, 0, 0, 0, 0, 0, 0, 0, 0, 0, 1, 0, 0, 0, 0, 0, 0, 0, 0, 0, 0] (0.000s)
  Sub: Z₀=20.278131 [LOCAL], α=[0.000,0.000,0.000,0.000,0.123,0.000,0.000,13.934,0.000,0.000,0.000,0.000,0.000,0.000,3.134,0.000,0.000,0.000,0.000,8.443,0.000,0.000,0.000,0.000,0.000,0.000,0.000,0.000,0.000,0.000]
  Iter 7: LB=11.351224  UB=21.339914  gap=4.68e-01
  Cut: intercept=-582.529856, π_x_range=[-419.7496, 304.3753]
  Mini-Benders[1] (mw): LB=11.922188, Z₀(α*)=-5.602179, intercept=3.660544
  Mini-Benders[2] (mw): LB=11.922188, Z₀(α*)=-5.602179, intercept=3.660544
  Mini-Benders[3] (mw): LB=11.922188, Z₀(α*)=-5.602179, intercept=3.660544
  Mini-Benders[4]: LB stagnated, break
  α-step: Z₀=21.701398, α=[0.000,0.000,0.000,0.000,0.000,0.000,0.000,7.161,0.000,0.000,1.037,0.000,0.000,0.000,7.546,0.000,0.000,0.000,9.439,0.450,0.000,0.000,0.000,0.000,0.000,0.000,0.000,0.000,0.000,0.000]
  Alt-Benders[1] (mw): LB=12.466131, Z₀(α*)=9.954926, intercept=24.385347
  Alt-Benders[2] (mw): LB=12.466131, Z₀(α*)=9.954926, intercept=24.385347
  Alt-Benders[3] (mw): LB=12.466131, Z₀(α*)=9.954926, intercept=24.385347
  Alt-Benders[4]: LB stagnated, break
  OMP re-solve: 0.000s

=== True-DRO Benders iter 8 ===
  OMP: t₀=12.466131, UB=21.339914, gap=4.16e-01, x=[0, 0, 0, 0, 0, 0, 0, 1, 0, 0, 0, 0, 0, 0, 0, 0, 0, 1, 0, 0, 0, 0, 0, 0, 0, 0, 0, 0, 0, 0] (0.000s)
  Sub: Z₀=24.129997 [LOCAL], α=[0.000,0.000,0.000,0.000,0.335,0.000,0.000,13.461,0.000,0.000,0.000,0.000,0.000,0.000,4.504,0.000,0.000,0.000,0.000,7.334,0.000,0.000,0.000,0.000,0.000,0.000,0.000,0.000,0.000,0.000]
  Iter 8: LB=12.466131  UB=21.339914  gap=4.16e-01
  Cut: intercept=-572.122244, π_x_range=[-421.4307, 298.5369]
  Mini-Benders[1] (mw): LB=12.602964, Z₀(α*)=-6.510316, intercept=7.223892
  Mini-Benders[2] (mw): LB=12.602964, Z₀(α*)=-6.510316, intercept=7.223894
  Mini-Benders[3] (mw): LB=12.602964, Z₀(α*)=-6.510316, intercept=7.223894
  Mini-Benders[4]: LB stagnated, break
  α-step: Z₀=20.899641, α=[0.000,0.000,0.000,0.000,0.494,0.000,0.000,7.605,0.000,0.000,0.000,0.000,0.000,0.000,7.046,0.000,0.000,0.000,9.169,0.000,0.000,0.000,1.319,0.000,0.000,0.000,0.000,0.000,0.000,0.000]
  Alt-Benders[1] (mw): LB=12.705224, Z₀(α*)=10.272799, intercept=17.695495
  Alt-Benders[2] (mw): LB=12.705224, Z₀(α*)=10.272799, intercept=17.695495
  Alt-Benders[3] (mw): LB=12.705224, Z₀(α*)=10.272799, intercept=17.695495
  Alt-Benders[4]: LB stagnated, break
  OMP re-solve: 0.000s

=== True-DRO Benders iter 9 ===
  OMP: t₀=12.705224, UB=21.339914, gap=4.05e-01, x=[0, 0, 0, 0, 1, 0, 0, 0, 0, 0, 0, 0, 0, 0, 0, 0, 0, 0, 1, 0, 0, 0, 0, 0, 0, 0, 0, 0, 0, 0] (0.000s)
  Sub: Z₀=19.325971 [TIME_LIMIT], α=[0.000,0.000,0.000,0.000,6.508,0.000,0.000,0.557,0.000,0.000,0.000,0.000,0.000,0.000,9.974,0.000,0.000,0.000,8.378,0.216,0.000,0.000,0.000,0.000,0.000,0.000,0.000,0.000,0.000,0.000]
  Iter 9: LB=12.705224  UB=19.666570  gap=3.54e-01
  Cut: intercept=-7.181325, π_x_range=[-63.5007, 14.2029]
  Mini-Benders[1] (mw): LB=12.832648, Z₀(α*)=-10.365638, intercept=3.898389
  Mini-Benders[2] (mw): LB=12.832648, Z₀(α*)=-10.365638, intercept=3.898389
  Mini-Benders[3] (mw): LB=12.832648, Z₀(α*)=-10.365638, intercept=3.898389
  Mini-Benders[4]: LB stagnated, break
  α-step: Z₀=18.346672, α=[0.000,0.000,0.000,0.000,0.000,0.000,0.000,14.139,0.000,0.000,1.483,0.000,0.000,0.000,5.423,0.000,0.000,0.000,3.978,0.611,0.000,0.000,0.000,0.000,0.000,0.000,0.000,0.000,0.000,0.000]
  Alt-Benders[1] (mw): LB=12.957525, Z₀(α*)=2.828598, intercept=16.976885
  Alt-Benders[2] (mw): LB=12.957525, Z₀(α*)=2.828598, intercept=16.976885
  Alt-Benders[3] (mw): LB=12.957525, Z₀(α*)=2.828598, intercept=16.976885
  Alt-Benders[4]: LB stagnated, break
  OMP re-solve: 0.000s

=== True-DRO Benders iter 10 ===
  OMP: t₀=12.957525, UB=19.666570, gap=3.41e-01, x=[0, 0, 0, 0, 1, 0, 0, 0, 0, 0, 0, 0, 0, 1, 0, 0, 0, 0, 0, 0, 0, 0, 0, 0, 0, 0, 0, 0, 0, 0] (0.000s)
  Sub: Z₀=23.422689 [LOCAL], α=[0.000,0.000,0.000,0.000,8.298,0.000,0.000,3.264,0.000,0.000,0.000,0.000,0.000,0.000,12.165,0.000,0.000,0.000,0.000,1.906,0.000,0.000,0.000,0.000,0.000,0.000,0.000,0.000,0.000,0.000]
  Iter 10: LB=12.957525  UB=19.666570  gap=3.41e-01
  Cut: intercept=-569.686672, π_x_range=[-421.3769, 296.8414]
  Mini-Benders[1] (mw): LB=13.161629, Z₀(α*)=14.139107, intercept=9.982482
  Mini-Benders[2] (mw): LB=13.614799, Z₀(α*)=8.027892, intercept=12.823325
  Mini-Benders[3] (mw): LB=13.614799, Z₀(α*)=8.027892, intercept=12.823325
  Mini-Benders[4] (mw): LB=13.614799, Z₀(α*)=8.027892, intercept=12.823325
  Mini-Benders[5]: LB stagnated, break
  α-step: Z₀=24.213741, α=[0.000,0.000,0.000,0.000,1.468,0.000,0.000,9.569,0.000,0.000,0.974,0.000,0.000,0.000,8.271,0.000,0.000,0.000,4.042,1.309,0.000,0.000,0.000,0.000,0.000,0.000,0.000,0.000,0.000,0.000]
  Alt-Benders[1] (mw): LB=13.659792, Z₀(α*)=21.103726, intercept=17.318813
  Alt-Benders[2] (mw): LB=13.978252, Z₀(α*)=18.543770, intercept=26.816547
  Alt-Benders[3] (mw): LB=14.139105, Z₀(α*)=11.553892, intercept=19.051587
  Alt-Benders[4] (mw): LB=14.139105, Z₀(α*)=11.553892, intercept=19.051587
  Alt-Benders[5] (mw): LB=14.139105, Z₀(α*)=11.553892, intercept=19.051587
  OMP re-solve: 0.165s

=== True-DRO Benders iter 11 ===
  OMP: t₀=14.139105, UB=19.666570, gap=2.81e-01, x=[0, 0, 0, 0, 1, 0, 0, 0, 0, 0, 1, 0, 0, 0, 0, 0, 0, 0, 0, 0, 0, 0, 0, 0, 0, 0, 0, 0, 0, 0] (0.000s)
  Sub: Z₀=21.335241 [LOCAL], α=[0.000,0.000,0.000,0.000,7.318,0.000,0.000,2.925,0.000,0.000,1.390,0.000,0.000,0.000,11.476,0.000,0.000,0.000,1.948,0.576,0.000,0.000,0.000,0.000,0.000,0.000,0.000,0.000,0.000,0.000]
  Iter 11: LB=14.139105  UB=19.666570  gap=2.81e-01
  Cut: intercept=-573.318510, π_x_range=[-422.6311, 297.7369]
  Mini-Benders[1] (mw): LB=14.198387, Z₀(α*)=14.591792, intercept=3.369047
  Mini-Benders[2] (mw): LB=14.347067, Z₀(α*)=-0.775227, intercept=10.951358
  Mini-Benders[3] (mw): LB=14.347067, Z₀(α*)=-0.775227, intercept=10.951358
  Mini-Benders[4] (mw): LB=14.347067, Z₀(α*)=-0.775227, intercept=10.951358
  Mini-Benders[5]: LB stagnated, break
  α-step: Z₀=14.932223, α=[0.000,0.000,0.000,0.000,0.000,0.000,0.000,10.315,0.000,0.000,0.060,0.000,0.000,0.000,10.851,0.000,0.000,0.000,4.407,0.000,0.000,0.000,0.000,0.000,0.000,0.000,0.000,0.000,0.000,0.000]
  Alt-Benders[1] (mw): LB=14.553961, Z₀(α*)=14.308610, intercept=23.284600
  Alt-Benders[2] (mw): LB=14.553961, Z₀(α*)=14.308610, intercept=23.284600
  Alt-Benders[3] (mw): LB=14.553961, Z₀(α*)=14.308610, intercept=23.284600
  Alt-Benders[4]: LB stagnated, break
  OMP re-solve: 0.001s

=== True-DRO Benders iter 12 ===
  OMP: t₀=14.553961, UB=19.666570, gap=2.60e-01, x=[0, 0, 0, 0, 0, 0, 0, 1, 0, 0, 0, 0, 0, 1, 0, 0, 0, 0, 0, 0, 0, 0, 0, 0, 0, 0, 0, 0, 0, 0] (0.000s)
  Sub: Z₀=23.020878, α=[0.000,0.000,0.000,0.000,0.000,0.000,0.000,13.982,0.000,0.000,0.000,0.000,0.000,0.000,5.981,0.000,0.000,0.000,0.000,5.671,0.000,0.000,0.000,0.000,0.000,0.000,0.000,0.000,0.000,0.000]
  Iter 12: LB=14.553961  UB=19.666570  gap=2.60e-01
  Cut: intercept=-0.436281, π_x_range=[-74.0000, 15.4489]
  Sherali-Cut: intercept=12.651211, π_x_range=[-28.5126, 10.7095]
  Mini-Benders[1] (mw): LB=14.591790, Z₀(α*)=6.344984, intercept=5.562197
  Mini-Benders[2] (mw): LB=14.591790, Z₀(α*)=6.344984, intercept=5.562197
  Mini-Benders[3] (mw): LB=14.591790, Z₀(α*)=6.344984, intercept=5.562197
  Mini-Benders[4]: LB stagnated, break
  α-step: Z₀=25.241110, α=[0.000,0.000,0.000,0.000,0.000,0.000,0.000,7.921,0.000,0.000,2.392,0.000,0.000,0.000,10.284,0.000,0.000,0.000,4.426,0.611,0.000,0.000,0.000,0.000,0.000,0.000,0.000,0.000,0.000,0.000]
  Alt-Benders[1] (mw): LB=14.693940, Z₀(α*)=10.259822, intercept=13.601326
  Alt-Benders[2] (mw): LB=14.693940, Z₀(α*)=10.259822, intercept=13.601326
  Alt-Benders[3] (mw): LB=14.693940, Z₀(α*)=10.259822, intercept=13.601326
  Alt-Benders[4]: LB stagnated, break
  OMP re-solve: 0.000s

=== True-DRO Benders iter 13 ===
  OMP: t₀=14.693940, UB=19.666570, gap=2.53e-01, x=[0, 0, 0, 0, 0, 0, 0, 0, 0, 0, 0, 0, 0, 0, 0, 0, 0, 0, 1, 1, 0, 0, 0, 0, 0, 0, 0, 0, 0, 0] (0.000s)
  Sub: Z₀=22.485905 [LOCAL], α=[0.000,0.000,0.000,0.000,0.023,0.000,0.000,5.935,0.000,0.000,0.488,0.000,0.000,0.000,4.505,0.000,0.000,0.000,10.993,3.690,0.000,0.000,0.000,0.000,0.000,0.000,0.000,0.000,0.000,0.000]
  Iter 13: LB=14.693940  UB=19.666570  gap=2.53e-01
  Cut: intercept=-574.619900, π_x_range=[-421.0530, 304.5269]
  Mini-Benders[1] (mw): LB=14.932223, Z₀(α*)=1.387433, intercept=4.831077
  Mini-Benders[2] (mw): LB=14.932223, Z₀(α*)=1.387433, intercept=4.831077
  Mini-Benders[3] (mw): LB=14.932223, Z₀(α*)=1.387433, intercept=4.831077
  Mini-Benders[4]: LB stagnated, break
  α-step: Z₀=14.511823, α=[0.000,0.000,0.000,0.000,0.000,0.000,0.000,9.363,0.000,0.000,0.000,0.000,0.000,0.000,9.899,0.000,0.000,0.000,6.371,0.000,0.000,0.000,0.000,0.000,0.000,0.000,0.000,0.000,0.000,0.000]
  Alt-Benders[1] (mw): LB=14.932223, Z₀(α*)=14.821027, intercept=9.644666
  Alt-Benders[2] (mw): LB=14.932223, Z₀(α*)=14.821027, intercept=9.644666
  Alt-Benders[3] (mw): LB=14.932223, Z₀(α*)=14.821027, intercept=9.644666
  Alt-Benders[4]: LB stagnated, break
  OMP re-solve: 0.001s

=== True-DRO Benders iter 14 ===
  OMP: t₀=14.932223, UB=19.666570, gap=2.41e-01, x=[0, 0, 0, 0, 1, 0, 0, 1, 0, 0, 0, 0, 0, 0, 0, 0, 0, 0, 0, 0, 0, 0, 0, 0, 0, 0, 0, 0, 0, 0] (0.000s)
  Sub: Z₀=17.918570 [LOCAL], α=[0.000,0.000,0.000,0.000,6.149,0.000,0.000,9.783,0.000,0.000,0.000,0.000,0.000,0.000,6.936,0.000,0.000,0.000,0.000,2.765,0.000,0.000,0.000,0.000,0.000,0.000,0.000,0.000,0.000,0.000]
  Iter 14: LB=14.932223  UB=19.666570  gap=2.41e-01
  Cut: intercept=-576.582821, π_x_range=[-419.9238, 298.6361]
  Mini-Benders[1] (mw): LB=16.154026, Z₀(α*)=11.714586, intercept=18.485692
  Mini-Benders[2] (mw): LB=16.154026, Z₀(α*)=11.714586, intercept=18.485692
  Mini-Benders[3] (mw): LB=16.154026, Z₀(α*)=11.714586, intercept=18.485692
  Mini-Benders[4]: LB stagnated, break
  α-step: Z₀=27.356372, α=[0.000,0.000,0.000,0.000,0.000,0.000,0.000,2.815,0.000,0.000,2.489,0.000,0.000,0.000,9.692,0.000,0.000,2.445,1.141,7.052,0.000,0.000,0.000,0.000,0.000,0.000,0.000,0.000,0.000,0.000]
  Alt-Benders[1] (mw): LB=16.338292, Z₀(α*)=4.724574, intercept=17.811073
  Alt-Benders[2] (mw): LB=16.338292, Z₀(α*)=4.724574, intercept=17.811073
  Alt-Benders[3] (mw): LB=16.338292, Z₀(α*)=4.724574, intercept=17.811073
  Alt-Benders[4]: LB stagnated, break
  OMP re-solve: 0.000s

=== True-DRO Benders iter 15 ===
  OMP: t₀=16.338292, UB=19.666570, gap=1.69e-01, x=[0, 0, 0, 0, 0, 0, 0, 0, 0, 0, 0, 0, 0, 1, 0, 0, 0, 0, 0, 0, 0, 0, 1, 0, 0, 0, 0, 0, 0, 0] (0.000s)
  Sub: Z₀=27.466918 [TIME_LIMIT], α=[0.000,0.000,0.000,0.000,0.000,0.000,0.000,10.218,0.000,0.000,1.752,0.000,0.000,0.000,8.941,0.000,0.000,0.000,0.000,0.000,0.000,0.000,4.722,0.000,0.000,0.000,0.000,0.000,0.000,0.000]
  Iter 15: LB=16.338292  UB=19.666570  gap=1.69e-01
  Cut: intercept=6.401584, π_x_range=[-101.0000, 14.9830]
  Mini-Benders[1] (mw): LB=16.804540, Z₀(α*)=-2.502882, intercept=12.311879
  Mini-Benders[2] (mw): LB=16.804540, Z₀(α*)=-2.502882, intercept=12.311879
  Mini-Benders[3] (mw): LB=16.804540, Z₀(α*)=-2.502882, intercept=12.311879
  Mini-Benders[4]: LB stagnated, break
  α-step: Z₀=23.274411, α=[0.000,0.000,0.000,0.000,0.761,0.000,0.000,6.867,0.000,0.000,1.657,0.000,0.000,0.000,6.041,0.000,0.000,0.000,10.307,0.000,0.000,0.000,0.000,0.000,0.000,0.000,0.000,0.000,0.000,0.000]
  Alt-Benders[1] (mw): LB=17.470137, Z₀(α*)=15.314408, intercept=20.648523
  Alt-Benders[2] (mw): LB=17.470137, Z₀(α*)=15.314408, intercept=20.648523
  Alt-Benders[3] (mw): LB=17.470137, Z₀(α*)=15.314408, intercept=20.648523
  Alt-Benders[4]: LB stagnated, break
  OMP re-solve: 0.001s

=== True-DRO Benders iter 16 ===
  OMP: t₀=17.470137, UB=19.666570, gap=1.12e-01, x=[0, 0, 0, 0, 0, 0, 0, 0, 0, 0, 0, 0, 0, 1, 0, 0, 0, 0, 0, 1, 0, 0, 0, 0, 0, 0, 0, 0, 0, 0] (0.001s)
  Sub: Z₀=27.461700 [LOCAL], α=[0.000,0.000,0.000,0.000,0.000,0.000,0.000,6.845,0.000,0.000,2.228,0.000,0.000,0.000,8.465,0.000,0.000,0.000,0.000,8.096,0.000,0.000,0.000,0.000,0.000,0.000,0.000,0.000,0.000,0.000]
  Iter 16: LB=17.470137  UB=19.666570  gap=1.12e-01
  Cut: intercept=-573.475191, π_x_range=[-422.0575, 304.5457]
  Mini-Benders[1] (mw): LB=17.532408, Z₀(α*)=1.349000, intercept=7.901967
  Mini-Benders[2] (mw): LB=17.532408, Z₀(α*)=1.349000, intercept=7.901967
  Mini-Benders[3] (mw): LB=17.532408, Z₀(α*)=1.349000, intercept=7.901967
  Mini-Benders[4]: LB stagnated, break
  α-step: Z₀=23.229919, α=[0.000,0.000,0.000,0.000,1.819,0.000,0.000,1.645,0.000,0.000,0.000,0.000,0.000,0.000,2.198,0.000,0.000,0.000,13.110,6.861,0.000,0.000,0.000,0.000,0.000,0.000,0.000,0.000,0.000,0.000]
  Alt-Benders[1] (mw): LB=17.683319, Z₀(α*)=1.740944, intercept=12.258149
  Alt-Benders[2] (mw): LB=17.683319, Z₀(α*)=1.740944, intercept=12.258149
  Alt-Benders[3] (mw): LB=17.683319, Z₀(α*)=1.740944, intercept=12.258149
  Alt-Benders[4]: LB stagnated, break
  OMP re-solve: 0.000s

=== True-DRO Benders iter 17 ===
  OMP: t₀=17.683319, UB=19.666570, gap=1.01e-01, x=[0, 0, 0, 0, 0, 0, 0, 0, 0, 0, 0, 0, 0, 0, 0, 0, 0, 1, 0, 0, 0, 0, 1, 0, 0, 0, 0, 0, 0, 0] (0.001s)
  Sub: Z₀=26.652178 [LOCAL], α=[0.000,0.000,0.000,0.000,0.083,0.000,0.000,8.945,0.000,0.000,0.000,0.000,0.000,0.000,7.383,0.000,0.000,0.283,2.805,0.009,0.000,0.000,6.126,0.000,0.000,0.000,0.000,0.000,0.000,0.000]
  Iter 17: LB=17.683319  UB=19.666570  gap=1.01e-01
  Cut: intercept=-562.681870, π_x_range=[-423.3900, 297.2865]
  Mini-Benders[1] (mw): LB=17.918570, Z₀(α*)=8.062186, intercept=0.438515
  Mini-Benders[2] (mw): LB=17.918570, Z₀(α*)=8.062186, intercept=0.438515
  Mini-Benders[3] (mw): LB=17.918570, Z₀(α*)=8.062186, intercept=0.438515
  Mini-Benders[4]: LB stagnated, break
  α-step: Z₀=15.953144, α=[0.000,0.000,0.000,0.000,0.000,0.000,0.000,11.906,0.000,0.000,0.000,0.000,0.000,0.000,12.443,0.000,0.000,0.000,1.284,0.000,0.000,0.000,0.000,0.000,0.000,0.000,0.000,0.000,0.000,0.000]
  Alt-Benders[1] (mw): LB=17.918570, Z₀(α*)=17.364329, intercept=7.556626
  Alt-Benders[2] (mw): LB=17.918570, Z₀(α*)=17.364329, intercept=7.556626
  Alt-Benders[3] (mw): LB=17.918570, Z₀(α*)=17.364329, intercept=7.556626
  Alt-Benders[4]: LB stagnated, break
  OMP re-solve: 0.001s

=== True-DRO Benders iter 18 ===
  OMP: t₀=17.918570, UB=19.666570, gap=8.89e-02, x=[0, 0, 0, 0, 1, 0, 0, 1, 0, 0, 0, 0, 0, 0, 0, 0, 0, 0, 0, 0, 0, 0, 0, 0, 0, 0, 0, 0, 0, 0] (0.001s)
  Sub: Z₀=17.990252 [TIME_LIMIT], α=[0.000,0.000,0.000,0.000,6.429,0.000,0.000,7.408,0.000,0.000,0.000,0.000,0.000,0.000,6.656,0.000,0.000,0.000,0.000,5.140,0.000,0.000,0.000,0.000,0.000,0.000,0.000,0.000,0.000,0.000]
  Iter 18: LB=17.918570  UB=18.127496  gap=1.15e-02
  Cut: intercept=1.702411, π_x_range=[-40.0530, 9.0178]
  Mini-Benders[1] (mw): LB=17.990252, Z₀(α*)=17.990247, intercept=7.255837
  Mini-Benders[2] (mw): LB=17.990252, Z₀(α*)=17.990247, intercept=7.255837
  Mini-Benders[3] (mw): LB=17.990252, Z₀(α*)=17.990247, intercept=7.255837
  Mini-Benders[4]: LB stagnated, break
  α-step: Z₀=17.990247, α=[0.000,0.000,0.000,0.000,0.000,0.000,0.000,12.548,0.000,0.000,0.000,0.000,0.000,0.000,13.085,0.000,0.000,0.000,0.000,0.000,0.000,0.000,0.000,0.000,0.000,0.000,0.000,0.000,0.000,0.000]
  Alt-Benders[1] (mw): LB=17.990252, Z₀(α*)=17.990247, intercept=6.992141
  Alt-Benders[2] (mw): LB=17.990252, Z₀(α*)=17.990247, intercept=6.992141
  Alt-Benders[3] (mw): LB=17.990252, Z₀(α*)=17.990247, intercept=6.992141
  Alt-Benders[4]: LB stagnated, break
  OMP re-solve: 0.001s

=== True-DRO Benders iter 19 ===
  OMP: t₀=17.990252, UB=18.127496, gap=7.57e-03, x=[0, 0, 0, 0, 1, 0, 0, 1, 0, 0, 0, 0, 0, 0, 0, 0, 0, 0, 0, 0, 0, 0, 0, 0, 0, 0, 0, 0, 0, 0] (0.001s)
  Sub: Z₀=17.918570 [LOCAL], α=[0.000,0.000,0.000,0.000,6.149,0.000,0.000,9.783,0.000,0.000,0.000,0.000,0.000,0.000,6.936,0.000,0.000,0.000,0.000,2.765,0.000,0.000,0.000,0.000,0.000,0.000,0.000,0.000,0.000,0.000]
  Iter 19: LB=17.990252  UB=18.127496  gap=7.57e-03
  Cut: intercept=-576.582821, π_x_range=[-419.9238, 298.6361]
  Mini-Benders[1] (mw): LB=17.990252, Z₀(α*)=17.990247, intercept=7.255828
  Mini-Benders[2] (mw): LB=17.990252, Z₀(α*)=17.990247, intercept=7.255828
  Mini-Benders[3]: LB stagnated, break
  α-step: Z₀=17.990247, α=[0.000,0.000,0.000,0.000,0.000,0.000,0.000,12.548,0.000,0.000,0.000,0.000,0.000,0.000,13.085,0.000,0.000,0.000,0.000,0.000,0.000,0.000,0.000,0.000,0.000,0.000,0.000,0.000,0.000,0.000]
  Alt-Benders[1] (mw): LB=17.990252, Z₀(α*)=17.990247, intercept=6.992141
  Alt-Benders[2] (mw): LB=17.990252, Z₀(α*)=17.990247, intercept=6.992141
  Alt-Benders[3]: LB stagnated, break
  OMP re-solve: 0.001s

=== True-DRO Benders iter 20 ===
  OMP: t₀=17.990252, UB=18.127496, gap=7.57e-03, x=[0, 0, 0, 0, 1, 0, 0, 1, 0, 0, 0, 0, 0, 0, 0, 0, 0, 0, 0, 0, 0, 0, 0, 0, 0, 0, 0, 0, 0, 0] (0.001s)
  Sub: Z₀=17.918570 [LOCAL], α=[0.000,0.000,0.000,0.000,6.149,0.000,0.000,9.783,0.000,0.000,0.000,0.000,0.000,0.000,6.936,0.000,0.000,0.000,0.000,2.765,0.000,0.000,0.000,0.000,0.000,0.000,0.000,0.000,0.000,0.000]
  Iter 20: LB=17.990252  UB=18.127496  gap=7.57e-03
  Cut: intercept=-576.582821, π_x_range=[-419.9238, 298.6361]
  Mini-Benders[1] (mw): LB=17.990252, Z₀(α*)=17.990247, intercept=7.255828
  Mini-Benders[2] (mw): LB=17.990252, Z₀(α*)=17.990247, intercept=7.255828
  Mini-Benders[3]: LB stagnated, break
  α-step: Z₀=17.990247, α=[0.000,0.000,0.000,0.000,0.000,0.000,0.000,12.548,0.000,0.000,0.000,0.000,0.000,0.000,13.085,0.000,0.000,0.000,0.000,0.000,0.000,0.000,0.000,0.000,0.000,0.000,0.000,0.000,0.000,0.000]
  Alt-Benders[1] (mw): LB=17.990252, Z₀(α*)=17.990247, intercept=6.992141
  Alt-Benders[2] (mw): LB=17.990252, Z₀(α*)=17.990247, intercept=6.992141
  Alt-Benders[3]: LB stagnated, break
  OMP re-solve: 0.001s

=== True-DRO Benders iter 21 ===
  OMP: t₀=17.990252, UB=18.127496, gap=7.57e-03, x=[0, 0, 0, 0, 1, 0, 0, 1, 0, 0, 0, 0, 0, 0, 0, 0, 0, 0, 0, 0, 0, 0, 0, 0, 0, 0, 0, 0, 0, 0] (0.000s)
  Sub: Z₀=17.990250 [TIME_LIMIT], α=[0.000,0.000,0.000,0.000,2.373,0.000,0.000,11.475,0.000,0.000,0.000,0.000,0.000,0.000,10.712,0.000,0.000,0.000,0.000,1.073,0.000,0.000,0.000,0.000,0.000,0.000,0.000,0.000,0.000,0.000]
  Iter 21: LB=17.990252  UB=18.127086  gap=7.55e-03
  Cut: intercept=-0.146883, π_x_range=[-45.0196, 10.1075]
  Mini-Benders[1] (mw): LB=17.990252, Z₀(α*)=17.990247, intercept=7.209576
  Mini-Benders[2] (mw): LB=17.990252, Z₀(α*)=17.990247, intercept=7.209576
  Mini-Benders[3]: LB stagnated, break
  α-step: Z₀=17.990247, α=[0.000,0.000,0.000,0.000,0.000,0.000,0.000,12.548,0.000,0.000,0.000,0.000,0.000,0.000,13.085,0.000,0.000,0.000,0.000,0.000,0.000,0.000,0.000,0.000,0.000,0.000,0.000,0.000,0.000,0.000]
  Alt-Benders[1] (mw): LB=17.990252, Z₀(α*)=17.990247, intercept=6.992141
  Alt-Benders[2] (mw): LB=17.990252, Z₀(α*)=17.990247, intercept=6.992141
  Alt-Benders[3]: LB stagnated, break
  OMP re-solve: 0.001s

=== True-DRO Benders iter 22 ===
  OMP: t₀=17.990252, UB=18.127086, gap=7.55e-03, x=[0, 0, 0, 0, 1, 0, 0, 1, 0, 0, 0, 0, 0, 0, 0, 0, 0, 0, 0, 0, 0, 0, 0, 0, 0, 0, 0, 0, 0, 0] (0.001s)
  Sub: Z₀=17.918570 [LOCAL], α=[0.000,0.000,0.000,0.000,6.149,0.000,0.000,9.783,0.000,0.000,0.000,0.000,0.000,0.000,6.936,0.000,0.000,0.000,0.000,2.765,0.000,0.000,0.000,0.000,0.000,0.000,0.000,0.000,0.000,0.000]
  Iter 22: LB=17.990252  UB=18.127086  gap=7.55e-03
  Cut: intercept=-576.582821, π_x_range=[-419.9238, 298.6361]
  Mini-Benders[1] (mw): LB=17.990252, Z₀(α*)=17.990247, intercept=7.255828
  Mini-Benders[2] (mw): LB=17.990252, Z₀(α*)=17.990247, intercept=7.255828
  Mini-Benders[3]: LB stagnated, break
  α-step: Z₀=17.990247, α=[0.000,0.000,0.000,0.000,0.000,0.000,0.000,12.548,0.000,0.000,0.000,0.000,0.000,0.000,13.085,0.000,0.000,0.000,0.000,0.000,0.000,0.000,0.000,0.000,0.000,0.000,0.000,0.000,0.000,0.000]
  Alt-Benders[1] (mw): LB=17.990252, Z₀(α*)=17.990247, intercept=6.992141
  Alt-Benders[2] (mw): LB=17.990252, Z₀(α*)=17.990247, intercept=6.992141
  Alt-Benders[3]: LB stagnated, break
  OMP re-solve: 0.001s

=== True-DRO Benders iter 23 ===
  OMP: t₀=17.990252, UB=18.127086, gap=7.55e-03, x=[0, 0, 0, 0, 1, 0, 0, 1, 0, 0, 0, 0, 0, 0, 0, 0, 0, 0, 0, 0, 0, 0, 0, 0, 0, 0, 0, 0, 0, 0] (0.001s)
  Sub: Z₀=17.918570 [LOCAL], α=[0.000,0.000,0.000,0.000,6.149,0.000,0.000,9.783,0.000,0.000,0.000,0.000,0.000,0.000,6.936,0.000,0.000,0.000,0.000,2.765,0.000,0.000,0.000,0.000,0.000,0.000,0.000,0.000,0.000,0.000]
  Iter 23: LB=17.990252  UB=18.127086  gap=7.55e-03
  Cut: intercept=-576.582821, π_x_range=[-419.9238, 298.6361]
  Mini-Benders[1] (mw): LB=17.990252, Z₀(α*)=17.990247, intercept=7.255828
  Mini-Benders[2] (mw): LB=17.990252, Z₀(α*)=17.990247, intercept=7.255828
  Mini-Benders[3]: LB stagnated, break
  α-step: Z₀=17.990247, α=[0.000,0.000,0.000,0.000,0.000,0.000,0.000,12.548,0.000,0.000,0.000,0.000,0.000,0.000,13.085,0.000,0.000,0.000,0.000,0.000,0.000,0.000,0.000,0.000,0.000,0.000,0.000,0.000,0.000,0.000]
  Alt-Benders[1] (mw): LB=17.990252, Z₀(α*)=17.990247, intercept=6.992141
  Alt-Benders[2] (mw): LB=17.990252, Z₀(α*)=17.990247, intercept=6.992141
  Alt-Benders[3]: LB stagnated, break
  OMP re-solve: 0.001s

=== True-DRO Benders iter 24 ===
  OMP: t₀=17.990252, UB=18.127086, gap=7.55e-03, x=[0, 0, 0, 0, 1, 0, 0, 1, 0, 0, 0, 0, 0, 0, 0, 0, 0, 0, 0, 0, 0, 0, 0, 0, 0, 0, 0, 0, 0, 0] (0.000s)
  → Boost: time limit off + MIPGap=0.5% (same x + prev TIME_LIMIT)
  Sub: Z₀=17.990247, α=[0.000,0.000,0.000,0.000,0.000,0.000,0.000,12.548,0.000,0.000,0.000,0.000,0.000,0.000,13.085,0.000,0.000,0.000,0.000,0.000,0.000,0.000,0.000,0.000,0.000,0.000,0.000,0.000,0.000,0.000]
  Iter 24: LB=17.990252  UB=17.990247  gap=2.76e-07
True-DRO Benders converged at iter 24 (gap=2.76e-07)
  Wall time: 458.15 sec
  OMP  time: mean=0.125s, median=0.155s, max=0.239s
  Sub  time (exact): mean=101.139s, median=101.139s, q90=172.227s, max=189.999s (n=2/24)

----------------------------------------
True-DRO: status=Optimal, Z₀=17.990247, iters=24, time=458.15s
  LB=17.990252, UB=17.990247, gap=2.76e-07
  x* = [0, 0, 0, 0, 0, 0, 0, 0, 0, 0, 0, 0, 0, 0, 0, 0, 0, 0, 0, 0, 0, 0, 0, 0, 0, 0, 0, 0, 0, 0]
============================================================
Primal Recovery: x* → α* → (h*, λ*, ψ⁰*)
============================================================
  x* = [0, 0, 0, 0, 0, 0, 0, 0, 0, 0, 0, 0, 0, 0, 0, 0, 0, 0, 0, 0, 0, 0, 0, 0, 0, 0, 0, 0, 0, 0]
  α* = [0.0000, 0.0000, 0.0000, 0.0000, 0.0000, 0.0000, 0.0000, 0.0000, 0.0000, 0.0000, 0.0000, 0.0000, 0.0000, 0.0000, 0.0000, 0.0000, 0.0000, 0.0000, 0.0000, 0.0000, 0.0000, 0.0000, 0.0000, 0.0000, 0.0000, 0.0000, 0.0000, 0.0000, 0.0000, 0.0000]

  Piece-F obj = -17.115602
  λ*   = 2.000000
  Σh*  = 51.266600  (budget: λw = 51.266600)

  h* (nonzero arcs):
    arc  8: h=17.115602
    arc 15: h=17.035396
    arc 19: h=17.115602
  ψ⁰* (nonzero arcs):

  Per-scenario sink flow ỹ_ts:
    s=1: ỹ_ts=30.884976
    s=2: ỹ_ts=25.341293
    s=3: ỹ_ts=31.694571
    s=4: ỹ_ts=62.524744
    s=5: ỹ_ts=19.027550
    s=6: ỹ_ts=30.629513
    s=7: ỹ_ts=21.187726
    s=8: ỹ_ts=36.949372
    s=9: ỹ_ts=43.266813
    s=10: ỹ_ts=37.716291
    s=11: ỹ_ts=24.350036
    s=12: ỹ_ts=51.141456
    s=13: ỹ_ts=58.284202
    s=14: ỹ_ts=21.372475
    s=15: ỹ_ts=23.936080
    s=16: ỹ_ts=44.729617
    s=17: ỹ_ts=25.717970
    s=18: ỹ_ts=27.183863
    s=19: ỹ_ts=34.314484
    s=20: ỹ_ts=28.494559

  Z₀(Benders) = 17.990247
  Piece-F(recovered) = -17.115602

Finished: 2026-04-18T05:08:49.999
